<number of tasks>
50

<cycle time>
1000

<order strength>
0.595


<task times>
1 104
2 45
3 168
4 214
5 39
6 84
7 135
8 85
9 433
10 170
11 85
12 256
13 71
14 54
15 83
16 158
17 90
18 109
19 288
20 182
21 182
22 154
23 71
24 75
25 153
26 126
27 153
28 23
29 92
30 86
31 96
32 168
33 110
34 304
35 83
36 221
37 31
38 85
39 164
40 35
41 51
42 49
43 139
44 64
45 145
46 137
47 224
48 256
49 194
50 231

<precedence relations>
1,5
2,4
2,6
2,7
3,11
4,8
5,11
6,9
7,10
7,12
8,15
9,14
10,13
10,16
10,17
11,16
11,17
11,35
12,16
12,31
13,18
14,19
15,20
16,21
17,20
17,22
18,23
19,24
20,24
20,25
20,26
20,27
21,25
21,26
22,24
22,26
22,27
23,28
24,33
24,36
25,29
25,33
25,36
26,30
26,44
27,31
27,32
27,33
28,35
29,34
31,36
31,37
32,36
32,37
33,40
34,38
35,39
35,40
36,39
37,39
37,40
38,44
39,41
39,43
39,44
39,45
40,42
40,45
41,46
42,47
43,48
45,49
45,50

<end>
